Assets/LKHProbs~/skull.74.tsp
NAME : GeneratedProblem
COMMENT : SVGCrosshatch
TYPE : TSP
DIMENSION : 75
EDGE_WEIGHT_TYPE : EUC_2D
NODE_COORD_SECTION
1 5200 500
2 5300 500
3 5300 600
4 5300 700
5 5400 200
6 5400 300
7 5400 400
8 5400 500
9 5400 600
10 5400 700
11 5400 800
12 5400 900
13 5500 200
14 5500 300
15 5500 400
16 5500 500
17 5500 600
18 5500 700
19 5500 800
20 5500 900
21 5500 1000
22 5600 200
23 5600 300
24 5600 400
25 5600 500
26 5600 600
27 5600 700
28 5600 800
29 5600 900
30 5600 1000
31 5600 1100
32 5600 1200
33 5600 1300
34 5700 200
35 5700 300
36 5700 400
37 5700 500
38 5700 600
39 5700 700
40 5700 800
41 5700 900
42 5700 1000
43 5700 1100
44 5700 1200
45 5700 1300
46 5800 200
47 5800 300
48 5800 400
49 5800 500
50 5800 600
51 5800 700
52 5800 800
53 5800 900
54 5800 1000
55 5800 1100
56 5900 200
57 5900 300
58 5900 400
59 5900 500
60 5900 600
61 5900 700
62 5900 800
63 5900 900
64 6000 200
65 6000 300
66 6000 400
67 6000 500
68 6000 600
69 6000 700
70 6100 200
71 6100 300
72 6100 400
73 6100 500
74 6200 200
75 6200 300
EOF
