Assets/LKHProbs~/skull.74.out.txt
NAME : GeneratedProblem.7541.tour
COMMENT : Length = 7541
COMMENT : Found by LKH [Keld Helsgaun] Sun Nov 25 13:18:02 2018
TYPE : TOUR
DIMENSION : 75
TOUR_SECTION
1
2
8
7
6
5
13
22
34
46
56
64
70
74
75
71
72
73
67
68
69
61
62
63
53
52
40
28
29
41
42
54
55
43
44
45
33
32
31
30
21
20
12
11
19
18
27
39
51
50
60
59
49
48
58
66
65
57
47
35
23
14
15
16
25
24
36
37
38
26
17
9
10
4
3
-1
EOF
